NAME : single
TYPE : ATSP
DIMENSION : 11
EDGE_WEIGHT_TYPE : EXPLICIT
EDGE_WEIGHT_FORMAT : FULL_MATRIX
EDGE_WEIGHT_SECTION
0 1271 1277 654 941 112 745 1327 17 1513 947 
199824 0 397 1053 982 1243 1145 458 1288 257 1345 
199823 397 0 1060 669 1250 1151 144 1295 639 1352 
199943 1053 1060 0 687 627 91 1073 671 1295 291 
199899 982 669 687 0 864 779 524 922 1224 979 
199934 1243 1250 627 864 0 709 1240 95 1469 900 
199928 1145 1151 91 779 709 0 1165 763 1387 248 
199821 458 144 1073 524 1240 1165 0 1308 700 1365 
199916 1288 1295 671 922 95 763 1308 0 1530 964 
199776 257 639 1295 1224 1469 1387 700 1530 0 1587 
199890 1345 1352 291 979 900 248 1365 964 1587 0 
EOF